;(set-option :produce-unsat-cores true )
(set-logic ALL_SUPPORTED )
(declare-sort A$ 0 )
(declare-sort A_set$ 0 )
(declare-sort A_bool_fun$ 0 )
(declare-codatatypes ()((A_llist$ (lNil$ )(lCons$ (lhd$ A$ )(ltl$ A_llist$ )))))
(declare-fun p$ ()A_bool_fun$ )
(declare-fun y$ ()A$ )
(declare-fun us$ ()A_llist$ )
(declare-fun vs$ ()A_llist$ )
(declare-fun xs$ ()A_llist$ )
(declare-fun ys$ ()A_llist$ )
(declare-fun zs$ ()A_llist$ )
(declare-fun xsa$ ()A_llist$ )
(declare-fun ysa$ ()A_llist$ )
(declare-fun zsa$ ()A_llist$ )
(declare-fun lset$ (A_llist$ )A_set$ )
(declare-fun member$ (A$ A_set$ )Bool )
(declare-fun thesis$ ()Bool )
(declare-fun fun_app$ (A_bool_fun$ A$ )Bool )
(declare-fun lappend$ (A_llist$ A_llist$ )A_llist$ )
(declare-fun lfilter$ (A_bool_fun$ A_llist$ )A_llist$ )
(declare-fun lfinite$ (A_llist$ )Bool )
(assert (! (not thesis$ ):named a0 ))
(assert (! (forall ((?v0 A_llist$ )(?v1 A_llist$ ))(=> (and (= vs$ (lappend$ ?v0 ?v1 ))(and (lfinite$ ?v0 )(and (= ysa$ (lfilter$ p$ ?v0 ))(= zsa$ (lfilter$ p$ ?v1 )))))thesis$ )):named a1 ))
(assert (! (lfinite$ ys$ ):named a2 ))
(assert (! (lfinite$ us$ ):named a3 ))
(assert (! (lfinite$ ysa$ ):named a4 ))
(assert (! (fun_app$ p$ y$ ):named a5 ))
(assert (! (exists ((?v0 A_llist$ )(?v1 A_llist$ ))(and (= vs$ (lappend$ ?v0 ?v1 ))(and (lfinite$ ?v0 )(and (= ysa$ (lfilter$ p$ ?v0 ))(= zsa$ (lfilter$ p$ ?v1 )))))):named a6 ))
(assert (! (forall ((?v0 A_bool_fun$ )(?v1 A_llist$ ))(= (lfilter$ ?v0 (lfilter$ ?v0 ?v1 ))(lfilter$ ?v0 ?v1 ))):named a7 ))
(assert (! (= (lfilter$ p$ vs$ )(lappend$ ysa$ zsa$ )):named a8 ))
(assert (! (forall ((?v0 A_llist$ )(?v1 A_llist$ ))(=> (= (lfilter$ p$ ?v0 )(lappend$ ysa$ ?v1 ))(exists ((?v2 A_llist$ )(?v3 A_llist$ ))(and (= ?v0 (lappend$ ?v2 ?v3 ))(and (lfinite$ ?v2 )(and (= ysa$ (lfilter$ p$ ?v2 ))(= ?v1 (lfilter$ p$ ?v3 )))))))):named a9 ))
(assert (! (forall ((?v0 A_llist$ )(?v1 A_llist$ ))(= (lfinite$ (lappend$ ?v0 ?v1 ))(and (lfinite$ ?v0 )(lfinite$ ?v1 )))):named a10 ))
(assert (! (= (lfilter$ p$ xs$ )(lappend$ ys$ zs$ )):named a11 ))
(assert (! (forall ((?v0 A_llist$ )(?v1 A_bool_fun$ )(?v2 A_llist$ ))(=> (lfinite$ ?v0 )(= (lfilter$ ?v1 (lappend$ ?v0 ?v2 ))(lappend$ (lfilter$ ?v1 ?v0 )(lfilter$ ?v1 ?v2 ))))):named a12 ))
(assert (! (forall ((?v0 A_llist$ )(?v1 A_llist$ )(?v2 A_llist$ ))(= (lappend$ (lappend$ ?v0 ?v1 )?v2 )(lappend$ ?v0 (lappend$ ?v1 ?v2 )))):named a13 ))
(assert (! (forall ((?v0 A_llist$ )(?v1 A_llist$ ))(! (=> (not (lfinite$ ?v0 ))(= (lappend$ ?v0 ?v1 )?v0 )):pattern ((lappend$ ?v0 ?v1 )))):named a14 ))
(assert (! (forall ((?v0 A_llist$ )(?v1 A_bool_fun$ ))(=> (lfinite$ ?v0 )(lfinite$ (lfilter$ ?v1 ?v0 )))):named a15 ))
(assert (! (forall ((?v0 A$ ))(=> (member$ ?v0 (lset$ us$ ))(not (fun_app$ p$ ?v0 )))):named a16 ))
(assert (! (forall ((?v0 A_llist$ )(?v1 A_llist$ ))(=> (= (lfilter$ p$ ?v0 )(lappend$ ysa$ ?v1 ))(exists ((?v2 A_llist$ )(?v3 A_llist$ ))(and (= ?v0 (lappend$ ?v2 ?v3 ))(and (lfinite$ ?v2 )(and (= ysa$ (lfilter$ p$ ?v2 ))(= ?v1 (lfilter$ p$ ?v3 )))))))):named a17 ))
(assert (! (= (lfilter$ p$ xsa$ )(lappend$ (lCons$ y$ ysa$ )zsa$ )):named a18 ))
(check-sat )
;(get-unsat-core )
